Total weight: 701.052788493974
Route 1: 0 93 75 2 1 99 100 97 92 94 95 98 7 3 4 89 21 26 23 18 19 16 14 12 15 17 13 9 11 10 5 90 0 
Route 2: 0 20 22 24 27 30 29 6 32 33 31 35 37 38 39 36 34 28 25 8 0 
Route 3: 0 67 63 62 74 72 61 64 66 69 68 65 49 55 54 53 56 58 60 59 57 40 44 46 45 51 50 52 47 43 42 41 48 0 
Route 4: 0 91 88 84 86 83 82 85 76 71 70 73 80 79 81 78 77 87 96 0 
